db/inputs/173822156830048257066031181451378220899.smt2
(set-logic QF_FP)
(declare-const x0 (_ FloatingPoint 8 24))
(declare-const x1 (_ FloatingPoint 8 24))
(declare-const x2 (_ FloatingPoint 8 24))
(declare-const x3 (_ FloatingPoint 8 24))
(declare-const x4 (_ FloatingPoint 8 24))
(declare-const x5 (_ FloatingPoint 8 24))
(declare-const x6 (_ FloatingPoint 8 24))
(declare-const x7 (_ FloatingPoint 8 24))
(declare-const x8 (_ FloatingPoint 8 24))
(assert (fp.lt (fp.mul RNE (fp.neg (fp.sub RNE x7 x3)) (fp.add RNE (fp.add RNE x7 x3) (fp.add RNE x5 x8))) (fp.div RNE (fp.neg (fp.div RNE x6 x6)) (fp.div RNE (fp.sub RNE x4 x2) (fp.mul RNE x0 x7)))))
(assert (fp.eq (fp.add RNE (fp.div RNE (fp.sub RNE x7 x3) (fp.neg x1)) (fp.mul RNE (fp.neg x4) (fp.sub RNE x7 x7))) (fp.sub RNE (fp.sub RNE (fp.mul RNE x6 x0) (fp.add RNE x2 x5)) (fp.add RNE (fp.mul RNE x3 x0) (fp.neg x0)))))
(assert (fp.gt (fp.add RNE (fp.sub RNE (fp.neg x8) (fp.mul RNE x0 x0)) (fp.sub RNE (fp.div RNE x7 x4) (fp.neg x5))) (fp.neg (fp.neg (fp.neg x5)))))
(assert (fp.gt (fp.neg (fp.div RNE (fp.mul RNE x3 x1) (fp.mul RNE x3 x8))) (fp.add RNE (fp.sub RNE (fp.sub RNE x4 x6) (fp.add RNE x0 x8)) (fp.sub RNE (fp.div RNE x3 x5) (fp.div RNE x3 x1)))))
(check-sat)
