db/data/173822156830048257066031181451378220899.z3.out
sat
-------------------
921.717096604
